int NumberPatients = 4
int NumberOfRooms = 16
int NumberSurgeons = 23
int NumberOfDays = 6
Duration = [238,47,119,119];
Priority = [0,0,0,0];
Waiting = [310,25,191,23];
Surgeon = [3,3,8,1];
BlockAvailability = [[[0,0],[0,0],[0,0],[0,0],[0,0],[0,0],[0,0],[0,0],[0,0],[0,0],[0,0],[0,0],[0,0],[0,0],[1,0],[1,0]],[[0,1],[0,0],[0,1],[1,0],[0,1],[0,1],[0,0],[0,0],[1,1],[1,1],[1,0],[1,0],[0,0],[0,0],[0,1],[0,1]],[[0,1],[0,0],[0,0],[1,1],[1,0],[0,0],[0,0],[1,0],[0,0],[0,0],[0,0],[0,0],[0,0],[0,0],[0,0],[0,0]],[[0,1],[0,0],[0,0],[0,0],[1,0],[0,0],[0,0],[1,0],[0,0],[0,1],[1,0],[0,0],[0,1],[0,0],[0,0],[1,1]],[[1,0],[0,0],[0,1],[0,0],[0,1],[0,0],[0,0],[0,0],[0,0],[0,0],[0,0],[0,0],[1,0],[0,0],[0,1],[0,0]],[[0,0],[0,0],[1,0],[0,0],[0,1],[1,0],[0,0],[0,0],[0,0],[1,0],[0,0],[1,0],[1,0],[1,0],[1,0],[1,0]]];
SurgeonAvailability = [[[0,1],[1,1],[0,1],[1,0],[1,1],[1,1]],[[1,0],[0,0],[1,0],[1,1],[0,0],[1,0]],[[0,0],[1,1],[1,1],[0,0],[1,1],[1,1]],[[0,1],[0,1],[1,1],[1,1],[0,1],[1,1]],[[1,0],[1,1],[0,1],[1,1],[1,0],[1,1]],[[0,1],[0,0],[1,0],[1,1],[1,1],[1,1]],[[1,1],[1,1],[1,1],[1,1],[1,1],[0,1]],[[0,1],[0,1],[1,0],[1,1],[1,1],[1,0]],[[1,1],[1,1],[1,1],[1,1],[1,1],[0,1]],[[1,1],[1,1],[1,0],[1,0],[1,1],[1,1]],[[1,1],[1,1],[0,1],[1,1],[1,1],[1,1]],[[1,0],[1,0],[1,1],[0,1],[0,1],[1,1]],[[0,1],[1,1],[1,1],[1,0],[0,1],[1,0]],[[1,0],[0,1],[1,1],[1,1],[1,0],[1,1]],[[1,1],[1,1],[0,0],[1,1],[0,1],[1,0]],[[1,1],[1,1],[0,1],[0,1],[1,0],[0,0]],[[1,1],[1,1],[1,1],[1,1],[1,1],[1,1]],[[1,0],[1,0],[1,0],[0,1],[0,1],[1,0]],[[1,1],[1,1],[1,1],[0,1],[1,0],[0,0]],[[1,1],[1,1],[1,1],[0,1],[1,1],[0,0]],[[1,1],[1,1],[0,1],[1,0],[0,1],[0,1]],[[1,1],[1,1],[0,1],[1,1],[1,1],[1,1]],[[1,1],[0,1],[1,0],[1,1],[1,1],[1,1]]];
